10J3M/DAT/10J3MUTR-17.dat
10 3
12.4015 33.5267
40.9717 37.9025
18.5685 31.7239
42.2339 7.3244
5.9375 41.1735
33.0776 14.057
5.55 46.4254
40.497 25.2689
17.0211 32.4566
23.0411 22.2445
73.0259