10J3M/SOL/10J3MUTR-17.sol
solution status: optimal solution found
objective value:                     57.0355858748222
x#1#3                                               1 	(obj:0)
x#2#2                                               1 	(obj:0)
x#3#1                                               1 	(obj:0)
x#4#1                               0.195008507254672 	(obj:0)
x#7#2                               0.144671104834582 	(obj:0)
x#7#3                               0.855328895165418 	(obj:0)
x#8#1                               0.180091734200849 	(obj:0)
x#8#2                               0.772089559602356 	(obj:0)
x#8#3                               0.047818706196801 	(obj:0)
x#9#1                               0.795206129131046 	(obj:0)
x#9#2                               0.204793870868954 	(obj:0)
x#10#1                                              1 	(obj:0)
z                                    57.0355858748222 	(obj:1)
